% seed = 0

mint = 13;
% maxt = 42;

nActs = 22;
dur = [0,2,1,3,1,2,2,5,1,2,1,4,3,2,4,2,2,2,1,1,1,0];

nSkills = 5;
sreq = [| 0,0,0,0,0,
	| 0,1,0,0,0,
	| 0,0,0,0,1,
	| 0,0,0,0,1,
	| 0,0,0,1,0,
	| 0,1,0,0,0,
	| 1,0,0,1,1,
	| 0,0,0,1,0,
	| 0,0,1,0,1,
	| 1,0,0,0,1,
	| 0,2,0,1,0,
	| 0,2,0,1,0,
	| 1,0,0,1,1,
	| 0,0,0,2,0,
	| 0,0,0,1,1,
	| 1,0,0,0,1,
	| 0,1,0,1,0,
	| 1,0,0,0,1,
	| 0,1,0,0,0,
	| 0,2,0,0,0,
	| 0,2,1,0,0,
	| 0,0,0,0,0, |];

% SumOfsreq = 38;

nResources = 4;
mastery = [| true,false,false,true,false,
	| false,true,true,false,false,
	| false,true,false,false,true,
	| false,true,false,true,false, |];

nPrecs = 40;
pred = [1,1,1,2,2,2,3,3,3,4,4,5,5,5,6,6,6,7,7,8,8,8,9,9,9,10,11,12,12,13,14,14,15,16,16,17,18,19,20,21];
succ = [2,3,4,6,7,14,12,6,15,18,5,9,20,7,18,11,8,10,13,19,20,13,10,11,21,19,19,13,16,21,15,16,17,17,21,18,20,22,22,22];

nUnrels = 102;
unpred = [2,2,2,2,2,3,3,3,3,3,3,4,4,4,4,4,4,4,5,5,5,5,5,5,5,5,6,6,6,6,6,6,6,6,7,7,7,7,7,7,7,7,7,7,8,8,8,8,8,8,8,8,8,9,9,9,9,9,9,9,9,10,10,10,10,10,10,10,10,10,10,11,11,11,11,11,11,11,11,11,12,12,12,13,13,13,13,13,13,13,14,15,15,15,16,17,17,18,18,19,19,20];
unsucc = [3,4,5,9,12,4,5,7,9,10,14,6,8,12,14,15,16,17,6,8,12,14,15,16,17,18,7,9,10,12,14,15,16,17,8,9,11,12,14,15,16,17,18,20,9,10,11,12,14,15,16,17,18,12,13,14,15,16,17,18,20,11,12,13,14,15,16,17,18,20,21,12,13,14,15,16,17,18,20,21,14,15,19,14,15,16,17,18,19,20,19,16,19,21,19,19,21,19,21,20,21,21];

USEFUL_RES = [{},
	{2,3,4},
	{3},
	{3},
	{1,4},
	{2,3,4},
	{1,3,4},
	{1,4},
	{2,3},
	{1,3},
	{1,2,3,4},
	{1,2,3,4},
	{1,3,4},
	{1,4},
	{1,3,4},
	{1,3},
	{1,2,3,4},
	{1,3},
	{2,3,4},
	{2,3,4},
	{2,3,4},
	{}];

POTENTIAL_ACT = [{5,7,8,10,11,12,13,14,15,16,17,18},
	{2,6,9,11,12,17,19,20,21},
	{2,3,4,6,7,9,10,11,12,13,15,16,17,18,19,20,21},
	{2,5,6,7,8,11,12,13,14,15,17,19,20,21}];
